*SENSE:Minimize
NAME          LP_Problem
ROWS
 N  Objective
 E  Constraint_1
 E  Constraint_2
 E  Constraint_3
 E  Constraint_4
 E  Constraint_5
 E  Constraint_6
 E  Constraint_7
 E  Constraint_8
 E  Constraint_9
 E  Constraint_10
COLUMNS
    x1        Constraint_1   7.000000000000e+00
    x1        Constraint_2   1.200000000000e+01
    x1        Constraint_3   1.200000000000e+01
    x1        Constraint_4   6.000000000000e+00
    x1        Constraint_5   8.000000000000e+00
    x1        Constraint_6   9.000000000000e+00
    x1        Constraint_7   8.000000000000e+00
    x1        Constraint_8   1.200000000000e+01
    x1        Constraint_9   1.200000000000e+01
    x1        Constraint_10   1.400000000000e+01
    x1        Objective  -1.200000000000e+01
    x10       Constraint_1   7.000000000000e+00
    x10       Constraint_2   6.000000000000e+00
    x10       Constraint_3   1.100000000000e+01
    x10       Constraint_4   1.000000000000e+01
    x10       Constraint_5   1.400000000000e+01
    x10       Constraint_6   1.100000000000e+01
    x10       Constraint_7   6.000000000000e+00
    x10       Constraint_8   8.000000000000e+00
    x10       Constraint_9   1.300000000000e+01
    x10       Constraint_10   1.400000000000e+01
    x10       Objective  -1.200000000000e+01
    x11       Constraint_1   1.000000000000e+01
    x11       Constraint_2   9.000000000000e+00
    x11       Constraint_3   1.100000000000e+01
    x11       Constraint_4   1.200000000000e+01
    x11       Constraint_5   1.200000000000e+01
    x11       Constraint_6   1.200000000000e+01
    x11       Constraint_7   1.300000000000e+01
    x11       Constraint_8   1.300000000000e+01
    x11       Constraint_9   1.000000000000e+01
    x11       Constraint_10   9.000000000000e+00
    x11       Objective  -1.800000000000e+01
    x12       Constraint_1   1.200000000000e+01
    x12       Constraint_2   8.000000000000e+00
    x12       Constraint_3   1.300000000000e+01
    x12       Constraint_4   7.000000000000e+00
    x12       Constraint_5   7.000000000000e+00
    x12       Constraint_6   1.300000000000e+01
    x12       Constraint_7   1.000000000000e+01
    x12       Constraint_8   1.400000000000e+01
    x12       Constraint_9   1.300000000000e+01
    x12       Constraint_10   8.000000000000e+00
    x12       Objective  -1.800000000000e+01
    x13       Constraint_1   7.000000000000e+00
    x13       Constraint_2   8.000000000000e+00
    x13       Constraint_3   1.000000000000e+01
    x13       Constraint_4   9.000000000000e+00
    x13       Constraint_5   9.000000000000e+00
    x13       Constraint_6   5.000000000000e+00
    x13       Constraint_7   7.000000000000e+00
    x13       Constraint_8   1.200000000000e+01
    x13       Constraint_9   6.000000000000e+00
    x13       Constraint_10   1.300000000000e+01
    x13       Objective  -1.700000000000e+01
    x14       Constraint_1   5.000000000000e+00
    x14       Constraint_2   1.200000000000e+01
    x14       Constraint_3   6.000000000000e+00
    x14       Constraint_4   1.100000000000e+01
    x14       Constraint_5   5.000000000000e+00
    x14       Constraint_6   1.000000000000e+01
    x14       Constraint_7   6.000000000000e+00
    x14       Constraint_8   5.000000000000e+00
    x14       Constraint_9   5.000000000000e+00
    x14       Constraint_10   6.000000000000e+00
    x14       Objective  -1.200000000000e+01
    x15       Constraint_1   1.000000000000e+00
    x16       Constraint_2   1.000000000000e+00
    x17       Constraint_3   1.000000000000e+00
    x18       Constraint_4   1.000000000000e+00
    x19       Constraint_5   1.000000000000e+00
    x2        Constraint_1   9.000000000000e+00
    x2        Constraint_2   7.000000000000e+00
    x2        Constraint_3   1.400000000000e+01
    x2        Constraint_4   6.000000000000e+00
    x2        Constraint_5   5.000000000000e+00
    x2        Constraint_6   1.100000000000e+01
    x2        Constraint_7   8.000000000000e+00
    x2        Constraint_8   1.100000000000e+01
    x2        Constraint_9   9.000000000000e+00
    x2        Constraint_10   1.200000000000e+01
    x2        Objective  -1.100000000000e+01
    x20       Constraint_6   1.000000000000e+00
    x21       Constraint_7   1.000000000000e+00
    x22       Constraint_8   1.000000000000e+00
    x23       Constraint_9   1.000000000000e+00
    x24       Constraint_10   1.000000000000e+00
    x3        Constraint_1   1.000000000000e+01
    x3        Constraint_2   1.100000000000e+01
    x3        Constraint_3   6.000000000000e+00
    x3        Constraint_4   1.400000000000e+01
    x3        Constraint_5   1.300000000000e+01
    x3        Constraint_6   1.200000000000e+01
    x3        Constraint_7   6.000000000000e+00
    x3        Constraint_8   8.000000000000e+00
    x3        Constraint_9   1.000000000000e+01
    x3        Constraint_10   7.000000000000e+00
    x3        Objective  -1.900000000000e+01
    x4        Constraint_1   1.100000000000e+01
    x4        Constraint_2   9.000000000000e+00
    x4        Constraint_3   1.300000000000e+01
    x4        Constraint_4   1.000000000000e+01
    x4        Constraint_5   9.000000000000e+00
    x4        Constraint_6   6.000000000000e+00
    x4        Constraint_7   8.000000000000e+00
    x4        Constraint_8   1.200000000000e+01
    x4        Constraint_9   1.400000000000e+01
    x4        Constraint_10   1.000000000000e+01
    x4        Objective  -1.500000000000e+01
    x5        Constraint_1   8.000000000000e+00
    x5        Constraint_2   1.300000000000e+01
    x5        Constraint_3   1.200000000000e+01
    x5        Constraint_4   7.000000000000e+00
    x5        Constraint_5   1.100000000000e+01
    x5        Constraint_6   1.400000000000e+01
    x5        Constraint_7   5.000000000000e+00
    x5        Constraint_8   7.000000000000e+00
    x5        Constraint_9   6.000000000000e+00
    x5        Constraint_10   7.000000000000e+00
    x5        Objective  -1.400000000000e+01
    x6        Constraint_1   6.000000000000e+00
    x6        Constraint_2   8.000000000000e+00
    x6        Constraint_3   8.000000000000e+00
    x6        Constraint_4   1.400000000000e+01
    x6        Constraint_5   1.000000000000e+01
    x6        Constraint_6   1.100000000000e+01
    x6        Constraint_7   1.300000000000e+01
    x6        Constraint_8   8.000000000000e+00
    x6        Constraint_9   1.200000000000e+01
    x6        Constraint_10   5.000000000000e+00
    x6        Objective  -1.900000000000e+01
    x7        Constraint_1   9.000000000000e+00
    x7        Constraint_2   5.000000000000e+00
    x7        Constraint_3   1.400000000000e+01
    x7        Constraint_4   1.100000000000e+01
    x7        Constraint_5   1.200000000000e+01
    x7        Constraint_6   5.000000000000e+00
    x7        Constraint_7   6.000000000000e+00
    x7        Constraint_8   9.000000000000e+00
    x7        Constraint_9   1.200000000000e+01
    x7        Constraint_10   5.000000000000e+00
    x7        Objective  -1.600000000000e+01
    x8        Constraint_1   1.400000000000e+01
    x8        Constraint_2   9.000000000000e+00
    x8        Constraint_3   5.000000000000e+00
    x8        Constraint_4   1.400000000000e+01
    x8        Constraint_5   9.000000000000e+00
    x8        Constraint_6   1.000000000000e+01
    x8        Constraint_7   1.400000000000e+01
    x8        Constraint_8   1.300000000000e+01
    x8        Constraint_9   1.200000000000e+01
    x8        Constraint_10   9.000000000000e+00
    x8        Objective  -1.800000000000e+01
    x9        Constraint_1   8.000000000000e+00
    x9        Constraint_2   9.000000000000e+00
    x9        Constraint_3   8.000000000000e+00
    x9        Constraint_4   1.100000000000e+01
    x9        Constraint_5   7.000000000000e+00
    x9        Constraint_6   1.300000000000e+01
    x9        Constraint_7   1.300000000000e+01
    x9        Constraint_8   5.000000000000e+00
    x9        Constraint_9   9.000000000000e+00
    x9        Constraint_10   5.000000000000e+00
    x9        Objective  -1.500000000000e+01
RHS
    RHS       Constraint_1   2.800000000000e+01
    RHS       Constraint_2   3.100000000000e+01
    RHS       Constraint_3   4.700000000000e+01
    RHS       Constraint_4   3.500000000000e+01
    RHS       Constraint_5   4.500000000000e+01
    RHS       Constraint_6   4.300000000000e+01
    RHS       Constraint_7   4.700000000000e+01
    RHS       Constraint_8   4.000000000000e+01
    RHS       Constraint_9   2.400000000000e+01
    RHS       Constraint_10   4.600000000000e+01
BOUNDS
ENDATA
